
Gurobi 11.0.1 (win64) logging started Thu Mar 14 08:07:33 2024

Set parameter LogFile to value "C:\Projetos\Job_Rotation_Algorithms\Outputs\GurobiLogs\gurobi_log-output-24_wee-c70-BorbaRittModel-NoExtraConstraint-2.log"
Gurobi Optimizer version 11.0.1 build v11.0.1rc0 (win64 - Windows 10.0 (19045.2))

CPU model: 11th Gen Intel(R) Core(TM) i7-1165G7 @ 2.80GHz, instruction set [SSE2|AVX|AVX2|AVX512]
Thread count: 4 physical cores, 8 logical processors, using up to 1 threads


Gurobi 11.0.1 (win64) logging started Fri Mar 15 00:44:59 2024

Set parameter LogFile to value "C:\Projetos\Job_Rotation_Algorithms\Outputs\GurobiLogs\gurobi_log-output-24_wee-c70-BorbaRittModel-NoExtraConstraint-2.log"
Gurobi Optimizer version 11.0.1 build v11.0.1rc0 (win64 - Windows 10.0 (19045.2))

CPU model: 11th Gen Intel(R) Core(TM) i7-1165G7 @ 2.80GHz, instruction set [SSE2|AVX|AVX2|AVX512]
Thread count: 4 physical cores, 8 logical processors, using up to 1 threads


Gurobi 11.0.1 (win64) logging started Tue Mar 19 09:19:02 2024

Set parameter LogFile to value "C:\Projetos\Job_Rotation_Algorithms\Outputs\GurobiLogs\gurobi_log-output-24_wee-c70-BorbaRittModel-NoExtraConstraint-2.log"
Gurobi Optimizer version 11.0.1 build v11.0.1rc0 (win64 - Windows 10.0 (19045.2))

CPU model: 11th Gen Intel(R) Core(TM) i7-1165G7 @ 2.80GHz, instruction set [SSE2|AVX|AVX2|AVX512]
Thread count: 4 physical cores, 8 logical processors, using up to 1 threads


Gurobi 11.0.1 (win64) logging started Mon Apr  1 12:48:05 2024

Set parameter LogFile to value "C:\Projetos\Job_Rotation_Algorithms\Outputs\GurobiLogs\gurobi_log-output-24_wee-c70-BorbaRittModel-NoExtraConstraint-2.log"
Gurobi Optimizer version 11.0.1 build v11.0.1rc0 (win64 - Windows 10.0 (19045.2))

CPU model: 11th Gen Intel(R) Core(TM) i7-1165G7 @ 2.80GHz, instruction set [SSE2|AVX|AVX2|AVX512]
Thread count: 4 physical cores, 8 logical processors, using up to 1 threads


Gurobi 11.0.1 (win64) logging started Mon Apr  1 21:35:55 2024

Set parameter LogFile to value "C:\Projetos\Job_Rotation_Algorithms\Outputs\GurobiLogs\gurobi_log-output-24_wee-c70-BorbaRittModel-NoExtraConstraint-2.log"
Gurobi Optimizer version 11.0.1 build v11.0.1rc0 (win64 - Windows 10.0 (19045.2))

CPU model: 11th Gen Intel(R) Core(TM) i7-1165G7 @ 2.80GHz, instruction set [SSE2|AVX|AVX2|AVX512]
Thread count: 4 physical cores, 8 logical processors, using up to 1 threads


Gurobi 11.0.1 (win64) logging started Thu Apr  4 23:33:28 2024

Set parameter LogFile to value "C:\Projetos\Job_Rotation_Algorithms\Outputs\GurobiLogs\gurobi_log-output-24_wee-c70-BorbaRittModel-NoExtraConstraint-2.log"
Gurobi Optimizer version 11.0.1 build v11.0.1rc0 (win64 - Windows 10.0 (19045.2))

CPU model: 11th Gen Intel(R) Core(TM) i7-1165G7 @ 2.80GHz, instruction set [SSE2|AVX|AVX2|AVX512]
Thread count: 4 physical cores, 8 logical processors, using up to 1 threads


Gurobi 11.0.1 (win64) logging started Sat Apr  6 13:03:02 2024

Set parameter LogFile to value "C:\Projetos\Job_Rotation_Algorithms\Outputs\GurobiLogs\gurobi_log-output-24_wee-c70-BorbaRittModel-NoExtraConstraint-2.log"
Gurobi Optimizer version 11.0.1 build v11.0.1rc0 (win64 - Windows 10.0 (19045.2))

CPU model: 11th Gen Intel(R) Core(TM) i7-1165G7 @ 2.80GHz, instruction set [SSE2|AVX|AVX2|AVX512]
Thread count: 4 physical cores, 8 logical processors, using up to 1 threads


Gurobi 11.0.1 (win64) logging started Sun Apr  7 02:35:55 2024

Set parameter LogFile to value "C:\Projetos\Job_Rotation_Algorithms\Outputs\GurobiLogs\gurobi_log-output-24_wee-c70-BorbaRittModel-NoExtraConstraint-2.log"
Gurobi Optimizer version 11.0.1 build v11.0.1rc0 (win64 - Windows 10.0 (19045.2))

CPU model: 11th Gen Intel(R) Core(TM) i7-1165G7 @ 2.80GHz, instruction set [SSE2|AVX|AVX2|AVX512]
Thread count: 4 physical cores, 8 logical processors, using up to 1 threads


Gurobi 11.0.1 (win64) logging started Sun Apr  7 09:48:51 2024

Set parameter LogFile to value "C:\Projetos\Job_Rotation_Algorithms\Outputs\GurobiLogs\gurobi_log-output-24_wee-c70-BorbaRittModel-NoExtraConstraint-2.log"
Gurobi Optimizer version 11.0.1 build v11.0.1rc0 (win64 - Windows 10.0 (19045.2))

CPU model: 11th Gen Intel(R) Core(TM) i7-1165G7 @ 2.80GHz, instruction set [SSE2|AVX|AVX2|AVX512]
Thread count: 4 physical cores, 8 logical processors, using up to 1 threads


Gurobi 11.0.1 (win64) logging started Tue Apr  9 08:07:27 2024

Set parameter LogFile to value "C:\Projetos\Job_Rotation_Algorithms\Outputs\GurobiLogs\gurobi_log-output-24_wee-c70-BorbaRittModel-NoExtraConstraint-2.log"
Gurobi Optimizer version 11.0.1 build v11.0.1rc0 (win64 - Windows 10.0 (19045.2))

CPU model: 11th Gen Intel(R) Core(TM) i7-1165G7 @ 2.80GHz, instruction set [SSE2|AVX|AVX2|AVX512]
Thread count: 4 physical cores, 8 logical processors, using up to 1 threads


Gurobi 11.0.1 (win64) logging started Wed Apr 10 17:37:07 2024

Set parameter LogFile to value "C:\Projetos\Job_Rotation_Algorithms\Outputs\GurobiLogs\gurobi_log-output-24_wee-c70-BorbaRittModel-NoExtraConstraint-2.log"
Gurobi Optimizer version 11.0.1 build v11.0.1rc0 (win64 - Windows 10.0 (19045.2))

CPU model: 11th Gen Intel(R) Core(TM) i7-1165G7 @ 2.80GHz, instruction set [SSE2|AVX|AVX2|AVX512]
Thread count: 4 physical cores, 8 logical processors, using up to 1 threads


Gurobi 11.0.1 (win64) logging started Thu Apr 11 01:42:24 2024

Set parameter LogFile to value "C:\Projetos\Job_Rotation_Algorithms\Outputs\GurobiLogs\gurobi_log-output-24_wee-c70-BorbaRittModel-NoExtraConstraint-2.log"
Gurobi Optimizer version 11.0.1 build v11.0.1rc0 (win64 - Windows 10.0 (19045.2))

CPU model: 11th Gen Intel(R) Core(TM) i7-1165G7 @ 2.80GHz, instruction set [SSE2|AVX|AVX2|AVX512]
Thread count: 4 physical cores, 8 logical processors, using up to 1 threads


Gurobi 11.0.1 (win64) logging started Sun Apr 21 02:58:59 2024

Set parameter LogFile to value "C:\Projetos\Job_Rotation_Algorithms\Outputs\GurobiLogs\gurobi_log-output-24_wee-c70-BorbaRittModel-NoExtraConstraint-2.log"
Gurobi Optimizer version 11.0.1 build v11.0.1rc0 (win64 - Windows 10.0 (19045.2))

CPU model: 11th Gen Intel(R) Core(TM) i7-1165G7 @ 2.80GHz, instruction set [SSE2|AVX|AVX2|AVX512]
Thread count: 4 physical cores, 8 logical processors, using up to 1 threads


Gurobi 11.0.1 (win64) logging started Fri Apr 26 07:40:59 2024

Set parameter LogFile to value "C:\Projetos\Job_Rotation_Algorithms\Outputs\GurobiLogs\gurobi_log-output-24_wee-c70-BorbaRittModel-NoExtraConstraint-2.log"
Gurobi Optimizer version 11.0.1 build v11.0.1rc0 (win64 - Windows 10.0 (19045.2))

CPU model: 11th Gen Intel(R) Core(TM) i7-1165G7 @ 2.80GHz, instruction set [SSE2|AVX|AVX2|AVX512]
Thread count: 4 physical cores, 8 logical processors, using up to 1 threads


Gurobi 11.0.1 (win64) logging started Sat Apr 27 04:32:31 2024

Set parameter LogFile to value "C:\Projetos\Job_Rotation_Algorithms\Outputs\GurobiLogs\gurobi_log-output-24_wee-c70-BorbaRittModel-NoExtraConstraint-2.log"
Gurobi Optimizer version 11.0.1 build v11.0.1rc0 (win64 - Windows 10.0 (19045.2))

CPU model: 11th Gen Intel(R) Core(TM) i7-1165G7 @ 2.80GHz, instruction set [SSE2|AVX|AVX2|AVX512]
Thread count: 4 physical cores, 8 logical processors, using up to 1 threads


Gurobi 11.0.1 (win64) logging started Sat Apr 27 14:50:29 2024

Set parameter LogFile to value "C:\Projetos\Job_Rotation_Algorithms\Outputs\GurobiLogs\gurobi_log-output-24_wee-c70-BorbaRittModel-NoExtraConstraint-2.log"
Gurobi Optimizer version 11.0.1 build v11.0.1rc0 (win64 - Windows 10.0 (19045.2))

CPU model: 11th Gen Intel(R) Core(TM) i7-1165G7 @ 2.80GHz, instruction set [SSE2|AVX|AVX2|AVX512]
Thread count: 4 physical cores, 8 logical processors, using up to 1 threads


Gurobi 11.0.1 (win64) logging started Mon Apr 29 05:47:10 2024

Set parameter LogFile to value "C:\Projetos\Job_Rotation_Algorithms\Outputs\GurobiLogs\gurobi_log-output-24_wee-c70-BorbaRittModel-NoExtraConstraint-2.log"
Gurobi Optimizer version 11.0.1 build v11.0.1rc0 (win64 - Windows 10.0 (19045.2))

CPU model: 11th Gen Intel(R) Core(TM) i7-1165G7 @ 2.80GHz, instruction set [SSE2|AVX|AVX2|AVX512]
Thread count: 4 physical cores, 8 logical processors, using up to 1 threads

WLS license 901038 - registered to Bitka Analytics
Optimize a model with 18017 rows, 2412 columns and 56366 nonzeros
Model fingerprint: 0xcb833c26
Variable types: 2 continuous, 2410 integer (2410 binary)
Coefficient statistics:
  Matrix range     [1e+00, 5e+01]
  Objective range  [1e+00, 1e+00]
  Bounds range     [1e+00, 1e+02]
  RHS range        [1e+00, 1e+02]
Presolve removed 1 rows and 1 columns
Presolve time: 0.09s
Presolved: 18016 rows, 2411 columns, 56364 nonzeros
Variable types: 0 continuous, 2411 integer (2410 binary)
Root relaxation presolved: 18016 rows, 2411 columns, 56364 nonzeros


Root relaxation: objective 1.500000e+02, 6762 iterations, 1.47 seconds (1.55 work units)

    Nodes    |    Current Node    |     Objective Bounds      |     Work
 Expl Unexpl |  Obj  Depth IntInf | Incumbent    BestBd   Gap | It/Node Time

     0     0  150.00000    0  309          -  150.00000      -     -    2s
     0     0  150.00000    0  464          -  150.00000      -     -    3s
     0     0  150.00000    0  479          -  150.00000      -     -    3s
     0     0  150.00000    0  374          -  150.00000      -     -    5s
     0     0  150.00000    0  352          -  150.00000      -     -    6s
     0     0  150.00000    0  414          -  150.00000      -     -    7s
     0     0  150.00000    0  403          -  150.00000      -     -    7s
     0     0  150.00000    0  288          -  150.00000      -     -   10s
     0     0  150.00000    0  426          -  150.00000      -     -   10s
     0     0  150.00000    0  499          -  150.00000      -     -   12s
     0     0  150.00000    0  499          -  150.00000      -     -   13s
     0     2  150.00000    0  499          -  150.00000      -     -   17s
    54    54  150.00000   36  255          -  150.00000      -   250   20s
   197   143  147.34748   80  346          -  150.00000      -   234   25s
   386   219  150.00000   66  188          -  150.00000      -   203   30s
   607   349  149.20494   92  314          -  150.00000      -   195   35s
   751   400  150.00000   63  435          -  150.00000      -   185   40s
   754   402  150.00000   64  360          -  150.00000      -   184   47s
   758   405  149.58079   85  272          -  150.00000      -   183   51s
   762   408  150.00000   51  216          -  150.00000      -   182   57s
   764   409  150.00000   64  425          -  150.00000      -   182   60s
   769   412  150.00000   45  517          -  150.00000      -   181   65s
   771   414  150.00000   54  308          -  150.00000      -   180   70s
   785   425  150.00000   21  255          -  150.00000      -   125   76s
   851   469  150.00000   54  330          -  150.00000      -   128   80s
   931   510  150.00000   91  245          -  150.00000      -   135   85s
   974   519  150.00000   29  325          -  150.00000      -   141   92s
  1015   542  150.00000   49  405          -  150.00000      -   141   95s
  1091   585  150.00000   87  197          -  150.00000      -   148  100s
  1158   616  150.00000   44  248          -  150.00000      -   156  105s
  1253   663 infeasible   71               -  150.00000      -   165  110s
  1342   682  150.00000   75  439          -  150.00000      -   175  115s
  1405   704  150.00000   80  275          -  150.00000      -   180  120s
  1491   712  150.00000   68  135          -  150.00000      -   180  125s
  1584   716 infeasible   88               -  150.00000      -   191  130s
  1683   764  150.00000   75  266          -  150.00000      -   193  135s
  1762   778 infeasible   84               -  150.00000      -   200  140s
  1861   816  150.00000   69  319          -  150.00000      -   200  145s
  1915   852  150.00000  102  394          -  150.00000      -   198  150s
  2080   938  150.00000   68  200          -  150.00000      -   197  155s
  2220  1034  150.00000   52  226          -  150.00000      -   198  160s
  2422  1190  150.00000   82  176          -  150.00000      -   194  165s
  2548  1290 infeasible   98               -  150.00000      -   199  170s
  2753  1453 infeasible   95               -  150.00000      -   200  175s
  2875  1529  150.00000   80  205          -  150.00000      -   206  180s
  3049  1669  150.00000  100  251          -  150.00000      -   209  185s
  3078  1690  150.00000  110  277          -  150.00000      -   210  191s
  3197  1749  150.00000   72  401          -  150.00000      -   212  195s
  3341  1847  150.00000   98  211          -  150.00000      -   214  200s
  3544  1970  150.00000   93  298          -  150.00000      -   212  205s
  3737  2103  150.00000   85  194          -  150.00000      -   211  210s
  3876  2198  150.00000   89  193          -  150.00000      -   213  215s
  4058  2326  150.00000  100  218          -  150.00000      -   213  220s
  4232  2436  150.00000   62  223          -  150.00000      -   214  225s
  4366  2532  150.00000  117  282          -  150.00000      -   216  230s
  4585  2669 infeasible  103               -  150.00000      -   216  235s
  4746  2756  150.00000   89  187          -  150.00000      -   217  240s
  4968  2892  150.00000   91  315          -  150.00000      -   217  245s
  5142  3014  150.00000   81  173          -  150.00000      -   218  250s
  5321  3103  150.00000   92  194          -  150.00000      -   220  255s
  5521  3199  150.00000   64  269          -  150.00000      -   221  260s
  5665  3317  150.00000  124  337          -  150.00000      -   224  265s
  5811  3429  150.00000  121  251          -  150.00000      -   225  270s
  5916  3504  150.00000   99  248          -  150.00000      -   228  275s
  5999  3525  150.00000   98  206          -  150.00000      -   229  280s
  6182  3640  150.00000   84  233          -  150.00000      -   229  285s
  6364  3718  150.00000   90  284          -  150.00000      -   230  290s
  6518  3806  150.00000   93  215          -  150.00000      -   231  295s
  6674  3878  150.00000   81  249          -  150.00000      -   232  300s
  6771  3933  150.00000   75  388          -  150.00000      -   234  305s
  6858  3952 infeasible   88               -  150.00000      -   236  310s
  7022  4040  150.00000  104  244          -  150.00000      -   235  315s
  7075  4061  150.00000   79  211          -  150.00000      -   236  320s
  7219  4151  150.00000   75  331          -  150.00000      -   236  325s
  7362  4254  150.00000   95  265          -  150.00000      -   237  330s
  7481  4333  150.00000  100  293          -  150.00000      -   238  335s
  7609  4431  150.00000  105  266          -  150.00000      -   238  340s
  7781  4541  150.00000   91  220          -  150.00000      -   238  345s
  7874  4594  150.00000   72  281          -  150.00000      -   239  350s
  7969  4673  150.00000  108  301          -  150.00000      -   240  358s
  8008  4682  150.00000  122  371          -  150.00000      -   241  360s
  8146  4786  150.00000  104  268          -  150.00000      -   242  365s
  8263  4855 infeasible  138               -  150.00000      -   244  370s
  8396  4944 infeasible   94               -  150.00000      -   245  375s
  8534  5044  150.00000   91  270          -  150.00000      -   246  380s
  8708  5178  150.00000   81  148          -  150.00000      -   246  385s
  8871  5299  150.00000  109  249          -  150.00000      -   247  390s
  9027  5403 infeasible  135               -  150.00000      -   248  395s
  9210  5534  150.00000  116  328          -  150.00000      -   249  400s
  9319  5587  150.00000  101  115          -  150.00000      -   250  405s
  9424  5636 infeasible  100               -  150.00000      -   252  410s
  9508  5694  150.00000  108  202          -  150.00000      -   254  415s
  9635  5751  150.00000  131  286          -  150.00000      -   256  420s
  9748  5790  150.00000  122  328          -  150.00000      -   257  425s
  9836  5832  150.00000  122  264          -  150.00000      -   258  430s
  9917  5857 infeasible  129               -  150.00000      -   260  435s
  9966  5870  150.00000  111  191          -  150.00000      -   261  443s
  9990  5882 infeasible  123               -  150.00000      -   261  445s
 10096  5952  150.00000  103  324          -  150.00000      -   262  450s
 10202  6036  150.00000   97  128          -  150.00000      -   262  564s
 10215  6045  150.00000  104  187          -  150.00000      -   262  565s
 10330  6106  150.00000   93  258          -  150.00000      -   263  570s
 10452  6176  150.00000   99  267          -  150.00000      -   264  575s
 10567  6233 infeasible   92               -  150.00000      -   264  580s
 10723  6365  150.00000  131  222          -  150.00000      -   264  585s
 10884  6484 infeasible   98               -  150.00000      -   264  590s
 11023  6575 infeasible  121               -  150.00000      -   264  595s
 11134  6658 infeasible  119               -  150.00000      -   265  600s
 11232  6716  150.00000   80  257          -  150.00000      -   266  605s
 11404  6832 infeasible   90               -  150.00000      -   267  610s
 11578  6934  150.00000  115  209          -  150.00000      -   268  615s
 11757  7043 infeasible   90               -  150.00000      -   269  620s
 11908  7144 infeasible  100               -  150.00000      -   271  625s
 12122  7290 infeasible  114               -  150.00000      -   272  630s
 12321  7391 infeasible  117               -  150.00000      -   273  635s
 12499  7443 infeasible  106               -  150.00000      -   274  640s
 12676  7514  150.00000   89  189          -  150.00000      -   275  645s
 12837  7599  150.00000  119  201          -  150.00000      -   277  653s
 12908  7646  150.00000  101  165          -  150.00000      -   277  655s
 13072  7738  150.00000   88  232          -  150.00000      -   278  660s
 13313  7877  150.00000   92  233          -  150.00000      -   279  665s
 13525  7981 infeasible   87               -  150.00000      -   279  670s
 13717  8107  150.00000   98  218          -  150.00000      -   280  675s
 13890  8166  150.00000   88  216          -  150.00000      -   280  680s
 14039  8249  150.00000   91  322          -  150.00000      -   281  685s
 14144  8310  150.00000  111  319          -  150.00000      -   283  690s
 14272  8374  150.00000  122  211          -  150.00000      -   283  695s
 14468  8514  150.00000   90  238          -  150.00000      -   284  700s
 14606  8618 infeasible  103               -  150.00000      -   284  705s
 14749  8719  150.00000  124  265          -  150.00000      -   285  710s
 14831  8775  150.00000   77  251          -  150.00000      -   286  715s
 14884  8818  150.00000  103  252          -  150.00000      -   286  720s
 15012  8882  150.00000   80  263          -  150.00000      -   287  725s
 15144  8994  150.00000  114  246          -  150.00000      -   288  730s
 15240  9048  150.00000  106  283          -  150.00000      -   289  735s
 15336  9118  150.00000  110  247          -  150.00000      -   291  740s
 15488  9236  150.00000  129  204          -  150.00000      -   291  745s
 15653  9333  150.00000  100  209          -  150.00000      -   292  750s
 15844  9390  150.00000   95  185          -  150.00000      -   293  755s
 16008  9474  150.00000   89  269          -  150.00000      -   293  760s
 16205  9575  150.00000   78  312          -  150.00000      -   294  765s
 16357  9677  150.00000   83  258          -  150.00000      -   294  770s
 16529  9773  150.00000   95  231          -  150.00000      -   295  775s
 16672  9856  150.00000   97  196          -  150.00000      -   297  780s
 16726  9880 infeasible  103               -  150.00000      -   297  785s
 16904  9970  150.00000   99  322          -  150.00000      -   298  790s
 17080 10048  150.00000   96  205          -  150.00000      -   299  795s
 17270 10138 infeasible  114               -  150.00000      -   299  800s
 17466 10260  150.00000   91  173          -  150.00000      -   300  805s
 17631 10345 infeasible   96               -  150.00000      -   301  810s
 17819 10451  150.00000   91  271          -  150.00000      -   302  815s
 17935 10519  150.00000  115  166          -  150.00000      -   303  820s
 18038 10558  150.00000   86  287          -  150.00000      -   305  825s
 18188 10594  150.00000   86  182          -  150.00000      -   305  830s
 18296 10644  150.00000   99  188          -  150.00000      -   306  835s
 18353 10685  150.00000  126  282          -  150.00000      -   306  842s
 18400 10702  150.00000  111  203          -  150.00000      -   307  845s
 18529 10757  150.00000  106  330          -  150.00000      -   308  850s
 18635 10813  150.00000  107  340          -  150.00000      -   309  855s
 18811 10903  150.00000   94  224          -  150.00000      -   309  860s
 18953 10981  150.00000  106  278          -  150.00000      -   309  865s
 19118 11064 infeasible  122               -  150.00000      -   310  870s
 19298 11198 infeasible  106               -  150.00000      -   310  875s
 19438 11282  150.00000  116  320          -  150.00000      -   311  880s
 19557 11331 infeasible  118               -  150.00000      -   311  885s
 19691 11419  150.00000  110  294          -  150.00000      -   312  890s
 19866 11538 infeasible   91               -  150.00000      -   312  895s
 20092 11704  150.00000  121  274          -  150.00000      -   311  900s
 20248 11806  150.00000  105  165          -  150.00000      -   312  905s
 20458 11920  150.00000   95  238          -  150.00000      -   312  910s
 20671 12009 infeasible  105               -  150.00000      -   312  915s
 20835 12043  150.00000   95  215          -  150.00000      -   313  920s
 21002 12100  150.00000   89  285          -  150.00000      -   314  925s
 21093 12141  150.00000   88  336          -  150.00000      -   315  933s
 21148 12176  150.00000  111  201          -  150.00000      -   315  935s
 21294 12254 infeasible  105               -  150.00000      -   315  940s
 21401 12295  150.00000  116  283          -  150.00000      -   317  945s
 21563 12355  150.00000  103  208          -  150.00000      -   318  950s
 21743 12397 infeasible  103               -  150.00000      -   318  955s
 21871 12427 infeasible   97               -  150.00000      -   319  960s
 21960 12474 infeasible  109               -  150.00000      -   321  965s
 22113 12501 infeasible  110               -  150.00000      -   322  970s
 22302 12584  150.00000  127  217          -  150.00000      -   322  975s
 22533 12723  150.00000   89  350          -  150.00000      -   321  980s
 22755 12847  150.00000   86  155          -  150.00000      -   321  985s
 22969 12947 infeasible   92               -  150.00000      -   321  990s
 23175 13019  150.00000  107  270          -  150.00000      -   321  995s
 23323 13077  150.00000  119  250          -  150.00000      -   321 1000s
 23531 13149  150.00000  110  245          -  150.00000      -   321 1005s
 23728 13274  150.00000  110  232          -  150.00000      -   320 1010s
 23853 13325  150.00000  107  277          -  150.00000      -   320 1018s
 23894 13330  150.00000  102  152          -  150.00000      -   320 1020s
 24096 13422  150.00000  114  403          -  150.00000      -   320 1025s
 24283 13435  150.00000   99  247          -  150.00000      -   320 1030s
 24423 13519  150.00000   96  360          -  150.00000      -   321 1035s
 24554 13575  150.00000  103  364          -  150.00000      -   321 1040s
 24693 13644 infeasible  104               -  150.00000      -   321 1045s
 24751 13663  149.23215  117  256          -  150.00000      -   323 1050s
 24908 13720 infeasible  104               -  150.00000      -   323 1055s
 25057 13813 infeasible  111               -  150.00000      -   323 1060s
 25207 13875  150.00000   94  282          -  150.00000      -   323 1065s
 25327 13923 infeasible   93               -  150.00000      -   324 1070s
 25478 14030  150.00000  104  338          -  150.00000      -   325 1075s
 25614 14100  150.00000   88  357          -  150.00000      -   325 1080s
 25734 14172  150.00000   95  279          -  150.00000      -   326 1085s
 25915 14283  150.00000  101  249          -  150.00000      -   326 1090s
 26120 14410  150.00000  109  237          -  150.00000      -   326 1095s
 26263 14471 infeasible   96               -  150.00000      -   327 1100s
 26383 14519  150.00000   91  244          -  150.00000      -   327 1105s
 26500 14580  150.00000   91  436          -  150.00000      -   328 1110s
 26644 14640 infeasible  105               -  150.00000      -   329 1115s
 26812 14712 infeasible   84               -  150.00000      -   329 1120s
 26849 14743  150.00000  109  236          -  150.00000      -   329 1126s
 26978 14772  150.00000  112  172          -  150.00000      -   330 1130s
 27173 14873  150.00000  128  166          -  150.00000      -   330 1135s
 27350 14922  150.00000   98  209          -  150.00000      -   330 1140s
 27523 14971 infeasible  109               -  150.00000      -   331 1145s
 27665 14995  150.00000  103  215          -  150.00000      -   331 1150s
 27760 15024  150.00000  107  183          -  150.00000      -   332 1155s
 27954 15088  150.00000   97  222          -  150.00000      -   333 1160s
 28163 15109  150.00000  100  208          -  150.00000      -   332 1165s
 28382 15192 infeasible  116               -  150.00000      -   332 1170s
 28504 15226 infeasible  110               -  150.00000      -   333 1175s
 28678 15300 infeasible  106               -  150.00000      -   333 1180s
 28828 15366 infeasible  115               -  150.00000      -   333 1185s
 28984 15424 infeasible  102               -  150.00000      -   333 1190s
 29117 15445 infeasible   98               -  150.00000      -   334 1195s
 29299 15553  150.00000   87  263          -  150.00000      -   334 1200s
 29467 15667  150.00000   86  200          -  150.00000      -   334 1205s
H29584 15752                     132.0000000  150.00000  13.6%   334 1211s
H29584 15752                     133.0000000  150.00000  12.8%   334 1211s
H29584 15752                     134.0000000  150.00000  11.9%   334 1211s
H29610 15778                     136.0000000  150.00000  10.3%   333 1211s
H29611 15779                     137.0000000  150.00000  9.49%   333 1212s
H29636 15802                     138.0000000  150.00000  8.70%   333 1212s
H29662 15806                     139.0000000  150.00000  7.91%   333 1213s
H29688 15826                     140.0000000  150.00000  7.14%   333 1214s
 29700 15826  150.00000  115  371  140.00000  150.00000  7.14%   333 1215s
H29717 15827                     141.0000000  150.00000  6.38%   333 1216s
H29755 15833                     143.0000000  150.00000  4.90%   334 1217s
H29769 15847                     145.0000000  150.00000  3.45%   334 1217s
H29797 15871                     146.0000000  150.00000  2.74%   334 1219s
 29823 15891 infeasible  145       146.00000  150.00000  2.74%   334 1220s
H29824 15889                     147.0000000  150.00000  2.04%   334 1220s
H29863 15914                     148.0000000  150.00000  1.35%   333 1221s
H29917 15904                     149.0000000  150.00000  0.67%   334 1223s
 29921 15908  150.00000   74  117  149.00000  150.00000  0.67%   334 1225s
 29927 15912  150.00000  103  107  149.00000  150.00000  0.67%   334 1230s
 29935 15918  150.00000   43  138  149.00000  150.00000  0.67%   333 1236s
 29942 15924  150.00000   26   99  149.00000  150.00000  0.67%   335 1240s
 30090 16017  150.00000  100   76  149.00000  150.00000  0.67%   334 1245s
 30245 16052  150.00000   64   79  149.00000  150.00000  0.67%   333 1250s
H30364 14986                     150.0000000  150.00000  0.00%   332 1253s

Cutting planes:
  Gomory: 1
  Flow cover: 3
  Zero half: 5
  RLT: 15
  BQP: 20

Explored 30365 nodes (10281344 simplex iterations) in 1253.39 seconds (1717.65 work units)
Thread count was 1 (of 8 available processors)

Solution count 10: 150 149 148 ... 139

Optimal solution found (tolerance 1.00e-03)
Best objective 1.500000000000e+02, best bound 1.500000000000e+02, gap 0.0000%
